Version identifier: 20.1.0.0 | 2020-11-10 | 9bedb6d68
Tried aggregator 3 times.
MIP Presolve eliminated 1905 rows and 929 columns.
MIP Presolve modified 4522 coefficients.
Aggregator did 155 substitutions.
Reduced MIP has 2539 rows, 2019 columns, and 8232 nonzeros.
Reduced MIP has 321 binaries, 1698 generals, 0 SOSs, and 0 indicators.
Presolve time = 0.03 sec. (12.36 ticks)
Found incumbent of value 2068.000000 after 0.05 sec. (22.30 ticks)
Probing fixed 60 vars, tightened 708 bounds.
Probing time = 0.00 sec. (1.99 ticks)
Tried aggregator 2 times.
MIP Presolve eliminated 1070 rows and 228 columns.
MIP Presolve modified 305 coefficients.
Aggregator did 88 substitutions.
Reduced MIP has 1381 rows, 1703 columns, and 4322 nonzeros.
Reduced MIP has 603 binaries, 1100 generals, 0 SOSs, and 0 indicators.
Presolve time = 0.01 sec. (6.28 ticks)
Probing time = 0.00 sec. (0.45 ticks)
Tried aggregator 1 time.
Detecting symmetries...
MIP Presolve modified 539 coefficients.
Reduced MIP has 1381 rows, 1703 columns, and 4322 nonzeros.
Reduced MIP has 603 binaries, 1100 generals, 0 SOSs, and 0 indicators.
Presolve time = 0.01 sec. (3.51 ticks)
Probing time = 0.00 sec. (0.42 ticks)
Clique table members: 239.
MIP emphasis: balance optimality and feasibility.
MIP search method: dynamic search.
Parallel mode: deterministic, using up to 24 threads.
Root relaxation solution time = 0.01 sec. (3.77 ticks)

        Nodes                                         Cuts/
   Node  Left     Objective  IInf  Best Integer    Best Bound    ItCnt     Gap

*     0+    0                         2068.0000        0.0000           100.00%
*     0+    0                           31.0000        0.0000           100.00%
      0     0        0.0000    20       31.0000        0.0000      397  100.00%
*     0+    0                           11.0000        0.0000           100.00%
      0     0        0.0400   305       11.0000      Cuts: 34      701   99.64%
      0     0        1.0000   155       11.0000     Cuts: 133      930   90.91%
*     0+    0                            7.0000        1.0000            85.71%
      0     0        cutoff              7.0000        7.0000     1052    0.00%
Elapsed time = 0.59 sec. (104.59 ticks, tree = 0.01 MB, solutions = 4)

Clique cuts applied:  12
Implied bound cuts applied:  27
Flow cuts applied:  5
Mixed integer rounding cuts applied:  31
Zero-half cuts applied:  90
Lift and project cuts applied:  3
Gomory fractional cuts applied:  7

Root node processing (before b&c):
  Real time             =    0.59 sec. (104.76 ticks)
Parallel b&c, 24 threads:
  Real time             =    0.00 sec. (0.00 ticks)
  Sync time (average)   =    0.00 sec.
  Wait time (average)   =    0.00 sec.
                          ------------
Total (root+branch&cut) =    0.59 sec. (104.76 ticks)

Solution status = Optimal
Solution LB = 7
Solution UB = 7
Runtime = 0.596334 seconds
	Command being timed: "/home/min/git_repos/CS598MEBProject/CNT-ILP/build/cnt -s 2 ./output/k8_n30/simC_c1_k8_n30_u1_s1_del04.input-right.cnp"
	User time (seconds): 7.50
	System time (seconds): 0.11
	Percent of CPU this job got: 1217%
	Elapsed (wall clock) time (h:mm:ss or m:ss): 0:00.62
	Average shared text size (kbytes): 0
	Average unshared data size (kbytes): 0
	Average stack size (kbytes): 0
	Average total size (kbytes): 0
	Maximum resident set size (kbytes): 115500
	Average resident set size (kbytes): 0
	Major (requiring I/O) page faults: 0
	Minor (reclaiming a frame) page faults: 26782
	Voluntary context switches: 4873
	Involuntary context switches: 1495
	Swaps: 0
	File system inputs: 0
	File system outputs: 16
	Socket messages sent: 0
	Socket messages received: 0
	Signals delivered: 0
	Page size (bytes): 4096
	Exit status: 0
